(set-logic QF_BV)
(declare-fun _substvar_497_ () (_ BitVec 16))
(declare-fun _substvar_568_ () (_ BitVec 8))
(declare-fun _substvar_490_ () (_ BitVec 16))
(declare-fun _substvar_170_ () (_ BitVec 8))
(declare-fun _substvar_556_ () (_ BitVec 8))
(assert (let ( (?v_16 ((_ zero_extend 24) _substvar_170_)) (?v_13 ((_ zero_extend 24) _substvar_556_)) (?v_3 ((_ zero_extend 24) _substvar_568_))) (let ((?v_2 (bvadd (bvadd (_ bv0 32) (_ bv4268253 32)) ((_ zero_extend 16) _substvar_497_)))) (let ((?v_4 (bvadd ?v_2 (_ bv6 32)))) (let ((?v_6 (bvadd (bvadd ?v_4 (bvadd ?v_3 (_ bv1 32))) (_ bv2 32)))) (let ((?v_5 (bvadd ?v_6 ((_ zero_extend 16) _substvar_490_)))) (let ((?v_8 (bvadd ?v_5 (_ bv6 32)))) (let ((?v_9 (bvadd ?v_8 (_ bv0 32)))) (let ((?v_11 (bvadd ?v_9 (_ bv2 32)))) (let ((?v_10 (bvadd ?v_11 ?v_13))) (let ((?v_12 (bvadd (bvadd ?v_10 (_ bv1 32)) ?v_16))) (let ((?v_15 (bvadd (bvadd ?v_12 (_ bv1 32)) (_ bv0 32)))) (let ((?v_20 (bvadd (bvadd ?v_15 (_ bv1 32)) (_ bv0 32)))) (let ((?v_25 (bvadd (bvadd ?v_20 (_ bv1 32)) (_ bv0 32)))) (let ((?v_30 (bvadd (bvadd ?v_25 (_ bv1 32)) (_ bv0 32)))) (let ((?v_31 (bvadd (bvadd ?v_30 (_ bv1 32)) (_ bv0 32)))) (and true true true true (bvsle (_ bv1040 32) (bvsub ?v_31 (_ bv4268071 32))) true true true true true true true true true true true true true true true true true true true true true (bvule (bvadd ?v_20 (_ bv2 32)) (_ bv4269078 32)) true true true true true true true true true true true true)))))))))))))))))
(check-sat)
(exit)
